NAME : 12.77222.tour
COMMENT : Length = 77222
COMMENT : Found by LKH-3 [Keld Helsgaun] Thu Jun 19 18:16:17 2025
TYPE : TOUR
DIMENSION : 100
TOUR_SECTION
1
24
18
83
12
72
68
3
48
41
43
66
46
92
62
38
32
4
19
45
16
78
37
73
67
13
50
81
93
94
10
2
97
25
63
40
54
69
71
9
89
39
77
5
74
53
23
26
55
27
57
34
8
7
91
90
22
75
15
65
76
21
28
99
79
42
35
20
95
47
58
86
82
98
96
70
59
52
6
30
88
60
64
80
36
11
29
56
17
84
51
33
85
44
14
49
100
31
87
61
-1
EOF
